row=11;
column=11;
Board=[|1,1,1,1,1,1,1,0,1,1,1|0,1,0,1,1,0,0,0,0,0,0|0,0,0,0,0,0,0,1,0,0,0|0,0,1,0,0,0,0,0,0,0,0|0,0,0,0,0,0,0,0,0,0,0|0,0,0,0,0,0,0,0,0,1,0|0,0,0,0,0,1,0,0,0,0,0|0,0,1,0,0,0,0,0,0,0,0|0,0,0,0,0,0,0,0,1,0,0|1,0,0,0,0,0,0,0,0,0,0|0,0,0,0,0,0,0,0,0,0,0|];
right = [0,4,0,2,3,2,3,1,2,2,1];
bottom = [1,4,1,3,0,1,3,1,2,2,2];
